lbl,CUST NO.,READY TIME,XCOORD.,YCOORD.,DEMAND,DUE DATE,SERVICE TIME
7,101,35,35,76,10,174,90
7,144,73,32,77,20,185,90
7,119,167,28,74,20,281,90
7,166,258,27,77,10,376,90
7,35,362,25,80,20,458,90
7,126,447,28,78,10,562,90
7,71,528,30,79,20,664,90
7,9,637,32,79,20,739,90
7,1,731,33,78,20,829,90
7,99,804,34,79,10,938,90
7,53,923,34,82,10,1006,90
